n = 32;
rows = 80;
supports = [|
  {1},2..10,
 |{1},24..32,
 |{2},{1},
 |{2},3..11,
 |{2},25..32,
 |{3},1..2,
 |{3},4..12,
 |{3},26..32,
 |{4},1..3,
 |{4},5..13,
 |{4},27..32,
 |{5},1..4,
 |{5},6..14,
 |{5},28..32,
 |{6},1..5,
 |{6},7..15,
 |{6},29..32,
 |{7},1..6,
 |{7},8..16,
 |{7},30..32,
 |{8},1..7,
 |{8},9..17,
 |{8},31..32,
 |{9},1..8,
 |{9},10..18,
 |{9},{32},
 |{10},1..9,
 |{10},11..19,
 |{11},2..10,
 |{11},12..20,
 |{12},3..11,
 |{12},13..21,
 |{13},4..12,
 |{13},14..22,
 |{14},5..13,
 |{14},15..23,
 |{15},6..14,
 |{15},16..24,
 |{16},7..15,
 |{16},17..25,
 |{17},8..16,
 |{17},18..26,
 |{18},9..17,
 |{18},19..27,
 |{19},10..18,
 |{19},20..28,
 |{20},11..19,
 |{20},21..29,
 |{21},12..20,
 |{21},22..30,
 |{22},13..21,
 |{22},23..31,
 |{23},14..22,
 |{23},24..32,
 |{24},15..23,
 |{24},25..32,
 |{24},{1},
 |{25},16..24,
 |{25},26..32,
 |{25},1..2,
 |{26},17..25,
 |{26},27..32,
 |{26},1..3,
 |{27},18..26,
 |{27},28..32,
 |{27},1..4,
 |{28},19..27,
 |{28},29..32,
 |{28},1..5,
 |{29},20..28,
 |{29},30..32,
 |{29},1..6,
 |{30},21..29,
 |{30},31..32,
 |{30},1..7,
 |{31},22..30,
 |{31},{32},
 |{31},1..8,
 |{32},23..31,
 |{32},1..9 |];

t = 90;

indexes = [|
    0,6,
  | 0,13,
  | 0,15,
  | 1,8,
  | 1,21,
  | 1,22,
  | 1,26,
  | 1,30,
  | 2,5,
  | 2,22,
  | 2,27,
  | 2,29,
  | 2,30,
  | 3,7,
  | 3,8,
  | 3,9,
  | 3,20,
  | 3,23,
  | 3,25,
  | 3,27,
  | 4,16,
  | 4,19,
  | 4,23,
  | 4,30,
  | 5,10,
  | 5,14,
  | 5,25,
  | 6,13,
  | 6,15,
  | 6,17,
  | 6,20,
  | 6,23,
  | 7,15,
  | 7,16,
  | 7,21,
  | 7,31,
  | 8,9,
  | 8,29,
  | 9,21,
  | 9,26,
  | 9,28,
  | 10,11,
  | 10,16,
  | 10,24,
  | 10,25,
  | 10,27,
  | 10,29,
  | 11,13,
  | 11,18,
  | 11,20,
  | 12,17,
  | 12,18,
  | 12,20,
  | 14,26,
  | 14,28,
  | 14,29,
  | 15,16,
  | 15,17,
  | 15,20,
  | 15,21,
  | 15,22,
  | 15,23,
  | 15,25,
  | 15,26,
  | 16,31,
  | 17,18,
  | 17,21,
  | 17,22,
  | 17,25,
  | 17,26,
  | 17,27,
  | 18,24,
  | 18,29,
  | 18,30,
  | 18,31,
  | 19,20,
  | 19,25,
  | 20,25,
  | 20,27,
  | 20,31,
  | 21,28,
  | 22,28,
  | 22,29,
  | 23,25,
  | 23,27,
  | 24,28,
  | 26,31,
  | 27,29,
  | 27,31,
  | 30,31 |];

